<!-- TimeStep 0.000000e+00 Computed 2016-06-03 at 15:44:14 -->
<VTKFile type="UnstructuredGrid" version="0.1" byte_order="LittleEndian">
<UnstructuredGrid>
<Piece NumberOfPoints="9" NumberOfCells="4">
<Points>
 <DataArray type="Float64" NumberOfComponents="3" format="ascii"> 0.000000e+00 0.000000e+00 0.000000e+00 1.500000e+00 0.000000e+00 0.000000e+00 3.000000e+00 0.000000e+00 0.000000e+00 0.000000e+00 1.500000e+00 0.000000e+00 1.500000e+00 1.500000e+00 0.000000e+00 3.000000e+00 1.500000e+00 0.000000e+00 0.000000e+00 3.000000e+00 0.000000e+00 1.500000e+00 3.000000e+00 0.000000e+00 3.000000e+00 3.000000e+00 0.000000e+00 </DataArray>
</Points>
<Cells>
 <DataArray type="Int32" Name="connectivity" format="ascii"> 0 1 4 3  1 2 5 4  3 4 7 6  4 5 8 7  </DataArray>
 <DataArray type="Int32" Name="offsets" format="ascii"> 4 8 12 16 </DataArray>
 <DataArray type="UInt8" Name="types" format="ascii"> 9 9 9 9 </DataArray>
</Cells>
<PointData Scalars="" Vectors="DisplacementVector IST_PrincipalStressTensor IST_PrincipalStrainTensor " Tensors="IST_StressTensor IST_StrainTensor " >
 <DataArray type="Float64" Name="DisplacementVector" NumberOfComponents="3" format="ascii"> 0.000000e+00 0.000000e+00 0.000000e+00 1.047332e-02 0.000000e+00 0.000000e+00 2.068955e-02 0.000000e+00 0.000000e+00 3.776368e-02 2.643975e-02 0.000000e+00 3.388775e-02 -3.432651e-03 0.000000e+00 3.824944e-02 -2.049714e-02 0.000000e+00 1.000000e-01 5.000000e-02 0.000000e+00 7.652328e-02 -1.571069e-03 0.000000e+00 6.977888e-02 -2.688439e-02 0.000000e+00 </DataArray>
 <DataArray type="Float64" Name="IST_StressTensor" NumberOfComponents="9" format="ascii"> 1.144596e-02 5.903366e-03 0.000000e+00 5.903366e-03 1.698034e-02 0.000000e+00 0.000000e+00 0.000000e+00 8.527892e-03 5.762606e-03 4.360872e-03 0.000000e+00 4.360872e-03 1.518773e-03 0.000000e+00 0.000000e+00 0.000000e+00 2.184414e-03 1.721291e-03 3.544421e-03 0.000000e+00 3.544421e-03 -1.011137e-02 0.000000e+00 0.000000e+00 0.000000e+00 -2.517025e-03 2.045663e-03 4.059371e-03 0.000000e+00 4.059371e-03 1.289490e-02 0.000000e+00 0.000000e+00 0.000000e+00 4.482168e-03 -2.805315e-05 3.176436e-03 0.000000e+00 3.176436e-03 1.015531e-03 0.000000e+00 0.000000e+00 0.000000e+00 2.962434e-04 -4.185804e-04 3.019544e-03 0.000000e+00 3.019544e-03 -6.936394e-03 0.000000e+00 0.000000e+00 0.000000e+00 -2.206492e-03 -8.925611e-03 2.913986e-03 0.000000e+00 2.913986e-03 8.136174e-03 0.000000e+00 0.000000e+00 0.000000e+00 -2.368312e-04 -7.389689e-03 2.718043e-03 0.000000e+00 2.718043e-03 -1.609866e-04 0.000000e+00 0.000000e+00 0.000000e+00 -2.265203e-03 -4.129428e-03 3.248143e-03 0.000000e+00 3.248143e-03 -4.434691e-03 0.000000e+00 0.000000e+00 0.000000e+00 -2.569236e-03 </DataArray>
 <DataArray type="Float64" Name="IST_PrincipalStressTensor" NumberOfComponents="3" format="ascii"> 2.112830e-02 8.527892e-03 7.298007e-03 9.245805e-03 2.184414e-03 -1.964426e-03 2.801384e-03 -2.517025e-03 -1.119147e-02 1.451598e-02 4.482168e-03 4.245769e-04 5.233059e-03 2.962434e-04 -4.245581e-03 1.369272e-03 -2.206492e-03 -8.724247e-03 8.819572e-03 -2.368312e-04 -9.609009e-03 1.900752e-03 -2.265203e-03 -9.451427e-03 -9.468139e-04 -2.569236e-03 -7.617306e-03 </DataArray>
 <DataArray type="Float64" Name="IST_StrainTensor" NumberOfComponents="9" format="ascii"> 3.793490e-03 1.534875e-02 0.000000e+00 1.534875e-02 1.098819e-02 0.000000e+00 0.000000e+00 0.000000e+00 0.000000e+00 4.651650e-03 1.133827e-02 0.000000e+00 1.133827e-02 -8.653329e-04 0.000000e+00 0.000000e+00 0.000000e+00 0.000000e+00 5.509810e-03 9.215494e-03 0.000000e+00 9.215494e-03 -9.872653e-03 0.000000e+00 0.000000e+00 0.000000e+00 0.000000e+00 -3.167457e-03 1.055437e-02 0.000000e+00 1.055437e-02 1.093655e-02 0.000000e+00 0.000000e+00 0.000000e+00 0.000000e+00 -4.215855e-04 8.258735e-03 0.000000e+00 8.258735e-03 9.350740e-04 0.000000e+00 0.000000e+00 0.000000e+00 0.000000e+00 2.324286e-03 7.850815e-03 0.000000e+00 7.850815e-03 -6.148873e-03 0.000000e+00 0.000000e+00 0.000000e+00 0.000000e+00 -1.129541e-02 7.576364e-03 0.000000e+00 7.576364e-03 1.088491e-02 0.000000e+00 0.000000e+00 0.000000e+00 0.000000e+00 -6.661832e-03 7.066913e-03 0.000000e+00 7.066913e-03 2.735481e-03 0.000000e+00 0.000000e+00 0.000000e+00 0.000000e+00 -2.028250e-03 8.445172e-03 0.000000e+00 8.445172e-03 -2.425092e-03 0.000000e+00 0.000000e+00 0.000000e+00 0.000000e+00 </DataArray>
 <DataArray type="Float64" Name="IST_PrincipalStrainTensor" NumberOfComponents="3" format="ascii"> 1.638053e-02 -1.158556e-18 -1.598850e-03 9.179809e-03 8.282668e-20 -5.393492e-03 6.913931e-03 9.255912e-19 -1.127677e-02 1.304396e-02 -1.015455e-18 -5.274868e-03 6.417860e-03 -3.059902e-19 -5.904371e-03 4.648494e-03 -4.622974e-19 -8.473081e-03 1.177332e-02 -1.091378e-18 -1.218383e-02 5.415741e-03 -1.365099e-19 -9.342092e-03 2.109149e-03 1.680942e-18 -6.562491e-03 </DataArray>
</PointData>
<CellData Scalars="" Vectors="" Tensors="" >
</CellData>
</Piece>
</UnstructuredGrid>
</VTKFile>